4 100 1822
5 6 7 15 10 9 10 10 9 7
3 3 2 1
5 6 3
2 5 8
2 9
8
0 40.0 50.0 0.0 0.0 0 1236
2 45.0 68.0 90.0 10.0 890 989 69 0 1 0 0 0 0 0 0 0 0
3 45.0 70.0 90.0 30.0 816 879 11 0 0 0 1 0 0 0 1 0 0
4 42.0 66.0 90.0 10.0 55 156 80 0 0 0 0 0 1 0 0 0 0
5 42.0 68.0 90.0 10.0 703 806 15 0 1 0 0 1 1 1 0 0 0
6 42.0 65.0 90.0 10.0 15 60 10 0 1 0 1 0 0 0 0 0 1
7 40.0 69.0 90.0 20.0 559 764 50 0 0 0 1 0 1 0 1 0 0
8 40.0 66.0 90.0 20.0 172 223 79 0 1 0 0 0 0 0 0 0 0
9 38.0 68.0 90.0 20.0 250 329 21 0 0 1 1 0 1 0 1 0 1
10 38.0 70.0 90.0 10.0 489 650 81 0 0 1 0 0 0 0 0 0 0
11 35.0 66.0 90.0 10.0 361 406 18 0 0 0 1 0 1 0 0 0 0
12 35.0 69.0 90.0 10.0 450 503 33 0 0 0 0 1 0 0 0 1 0
13 25.0 85.0 90.0 20.0 647 726 18 0 0 1 0 0 0 0 0 0 0
14 22.0 75.0 90.0 30.0 30 95 59 0 0 0 1 0 1 0 1 0 1
15 22.0 85.0 90.0 10.0 571 616 7 0 0 0 0 0 1 0 0 0 0
16 20.0 80.0 90.0 40.0 392 421 21 0 0 1 1 0 0 0 0 0 0
17 20.0 85.0 90.0 40.0 478 525 57 0 0 0 0 0 1 0 0 0 0
18 18.0 75.0 90.0 20.0 105 142 41 0 1 0 0 0 0 0 1 1 0
19 15.0 75.0 90.0 20.0 172 261 39 1 0 0 0 0 0 0 0 0 0
20 15.0 80.0 90.0 10.0 274 349 91 0 0 1 1 0 0 0 0 0 0
21 30.0 50.0 90.0 10.0 10 77 42 0 1 0 1 1 0 1 0 0 0
22 30.0 52.0 90.0 20.0 918 961 67 0 0 0 0 0 0 0 0 1 0
23 28.0 52.0 90.0 20.0 806 889 91 0 0 0 1 1 0 0 1 0 0
24 28.0 55.0 90.0 10.0 739 770 25 1 0 0 0 0 0 0 0 0 1
25 25.0 50.0 90.0 10.0 55 154 32 0 0 0 1 0 0 0 0 0 0
26 25.0 52.0 90.0 40.0 172 221 20 0 1 0 1 0 0 0 0 0 0
27 25.0 55.0 90.0 10.0 612 711 3 1 1 1 0 0 0 0 0 0 1
28 23.0 52.0 90.0 10.0 264 313 28 0 0 0 0 1 0 0 1 1 0
29 23.0 55.0 90.0 20.0 553 586 39 0 0 0 0 0 0 1 1 0 1
30 20.0 50.0 90.0 10.0 365 398 68 0 0 0 0 0 0 0 0 1 0
31 20.0 55.0 90.0 10.0 452 501 41 0 0 0 0 0 0 0 0 0 1
32 10.0 35.0 90.0 20.0 204 233 87 0 0 0 0 0 0 1 1 0 0
33 10.0 40.0 90.0 30.0 31 189 95 1 0 0 1 1 1 0 0 0 0
34 8.0 40.0 90.0 40.0 42 203 22 0 0 1 0 0 0 0 0 1 0
35 8.0 45.0 90.0 20.0 715 852 46 1 0 0 0 0 0 0 0 0 1
36 5.0 35.0 90.0 10.0 251 376 90 0 0 0 0 0 1 0 0 0 0
37 5.0 45.0 90.0 10.0 648 733 12 0 0 0 0 1 1 0 1 0 0
38 2.0 40.0 90.0 20.0 365 452 33 0 1 0 0 0 0 0 0 0 0
39 0.0 40.0 90.0 30.0 474 527 29 0 0 0 0 0 0 0 1 1 0
40 0.0 45.0 90.0 20.0 541 650 56 1 1 0 0 0 0 0 0 0 0
41 35.0 30.0 90.0 10.0 240 345 76 0 0 0 0 1 0 0 0 0 0
42 35.0 32.0 90.0 10.0 123 278 49 0 0 1 0 1 1 0 0 0 0
43 33.0 32.0 90.0 20.0 19 225 29 0 1 1 0 0 1 0 0 0 0
44 33.0 35.0 90.0 10.0 16 153 19 0 0 0 0 0 0 0 0 1 0
45 32.0 30.0 90.0 10.0 338 433 15 0 0 0 0 0 0 0 1 1 0
46 30.0 30.0 90.0 10.0 513 628 76 0 0 0 1 0 0 0 0 0 0
47 30.0 32.0 90.0 30.0 415 542 42 0 0 0 1 0 0 0 1 1 0
48 30.0 35.0 90.0 10.0 872 1127 45 0 0 0 0 0 1 0 0 0 0
49 28.0 30.0 90.0 10.0 599 726 70 0 1 1 0 0 0 0 0 0 0
50 28.0 35.0 90.0 10.0 917 1126 35 0 1 0 0 0 0 0 0 0 0
51 26.0 32.0 90.0 10.0 779 916 59 0 0 1 0 0 0 0 0 0 0
52 25.0 30.0 90.0 10.0 695 816 5 0 0 0 1 0 0 1 1 1 0
53 25.0 35.0 90.0 10.0 857 1024 44 0 0 0 1 1 0 0 0 0 0
54 44.0 5.0 90.0 20.0 221 412 27 1 0 0 0 0 0 0 0 0 1
55 42.0 10.0 90.0 40.0 96 347 79 1 0 0 0 1 0 1 1 1 0
56 42.0 15.0 90.0 10.0 35 233 80 0 0 0 0 0 1 0 0 0 1
57 40.0 5.0 90.0 30.0 347 474 9 0 1 0 1 0 0 1 0 0 0
58 40.0 15.0 90.0 40.0 35 172 1 0 0 0 0 0 0 1 0 0 1
59 38.0 5.0 90.0 30.0 403 602 45 0 0 0 1 1 0 0 0 0 0
60 38.0 15.0 90.0 10.0 521 870 51 0 0 0 1 1 1 0 0 0 0
61 35.0 5.0 90.0 20.0 487 704 4 0 0 0 0 0 0 1 1 0 0
62 50.0 30.0 90.0 10.0 422 719 90 0 1 0 0 1 0 0 0 1 0
63 50.0 35.0 90.0 20.0 217 362 79 0 0 0 0 0 1 0 0 0 0
64 50.0 40.0 90.0 50.0 142 247 66 0 0 0 0 0 0 1 1 0 0
65 48.0 30.0 90.0 10.0 567 758 20 1 0 1 0 0 1 0 0 0 0
66 48.0 40.0 90.0 10.0 34 171 29 1 1 0 1 1 0 0 0 0 0
67 47.0 35.0 90.0 10.0 794 907 64 0 1 0 0 1 1 1 0 1 0
68 47.0 40.0 90.0 10.0 12 226 49 0 1 0 0 0 0 0 0 0 0
69 45.0 30.0 90.0 10.0 716 795 71 1 0 0 0 0 0 1 0 0 0
70 45.0 35.0 90.0 10.0 873 1012 75 0 0 0 0 0 0 0 0 1 0
71 95.0 30.0 90.0 30.0 266 577 10 0 0 1 0 1 0 0 0 0 0
72 95.0 35.0 90.0 20.0 181 472 95 0 0 1 0 0 0 0 0 0 0
73 53.0 30.0 90.0 10.0 402 553 48 0 0 0 0 0 0 0 1 0 0
74 92.0 30.0 90.0 10.0 345 684 92 0 0 0 0 0 1 0 0 0 0
75 53.0 35.0 90.0 50.0 294 471 99 0 0 0 0 0 1 0 0 0 0
76 45.0 65.0 90.0 20.0 951 1114 95 0 0 1 1 0 0 1 1 1 0
77 90.0 35.0 90.0 10.0 153 310 43 1 0 0 0 0 0 0 0 0 0
78 88.0 30.0 90.0 10.0 450 767 67 0 0 0 0 0 0 0 1 0 0
79 88.0 35.0 90.0 20.0 50 237 27 0 0 1 1 0 1 1 0 0 0
80 87.0 30.0 90.0 10.0 567 832 40 0 1 1 0 0 0 0 0 1 1
81 85.0 25.0 90.0 10.0 713 876 15 1 1 0 1 0 0 0 0 0 1
82 85.0 35.0 90.0 30.0 47 331 56 0 0 0 1 1 0 0 0 1 0
83 75.0 55.0 90.0 20.0 311 478 0 0 0 0 0 0 1 0 0 0 0
84 72.0 55.0 90.0 10.0 127 476 6 0 0 0 0 0 1 0 0 0 0
85 70.0 58.0 90.0 20.0 349 632 0 0 0 0 0 0 1 0 0 0 1
86 68.0 60.0 90.0 30.0 476 691 63 0 0 0 0 1 1 0 0 0 0
87 66.0 55.0 90.0 10.0 67 344 77 0 1 1 0 0 1 1 1 0 0
88 65.0 55.0 90.0 20.0 25 256 3 0 0 0 1 0 1 0 1 0 0
89 65.0 60.0 90.0 30.0 546 807 32 0 0 0 0 0 1 1 0 1 1
90 63.0 58.0 90.0 10.0 630 909 62 0 0 0 0 0 1 0 0 0 0
91 60.0 55.0 90.0 10.0 20 293 2 1 1 0 0 0 1 0 0 0 0
92 60.0 60.0 90.0 10.0 769 956 93 0 0 0 0 0 1 0 0 0 0
93 67.0 85.0 90.0 20.0 229 580 76 1 0 0 0 0 1 1 0 0 0
94 65.0 85.0 90.0 40.0 442 551 84 0 0 0 0 1 0 1 0 0 0
95 65.0 82.0 90.0 10.0 227 394 32 0 0 0 1 0 0 0 0 1 0
96 62.0 80.0 90.0 30.0 163 272 21 0 0 0 0 0 0 0 0 1 0
97 60.0 80.0 90.0 10.0 36 291 75 0 0 0 0 1 0 0 0 0 0
98 60.0 85.0 90.0 30.0 469 714 5 0 0 0 1 0 0 0 0 0 1
99 58.0 75.0 90.0 20.0 30 227 25 0 0 0 0 0 1 0 0 0 0
100 55.0 80.0 90.0 10.0 595 968 80 1 0 0 1 0 1 0 0 1 1
101 55.0 85.0 90.0 20.0 493 880 83 0 1 0 0 1 0 0 0 0 0